c preprocessed version of BN_105, 43 vertices, 645 edges
p td 43 645
0 1
0 5
0 9
0 2
0 20
0 10
0 18
0 11
0 25
0 3
0 16
15 0
6 0
8 0
4 0
12 0
17 0
21 0
24 0
23 0
19 0
1 2
1 16
15 1
6 1
4 1
12 1
17 1
21 1
24 1
23 1
19 1
2 3
15 2
6 2
4 2
17 2
21 2
24 2
23 2
19 2
4 3
17 3
21 3
24 3
23 3
4 5
4 13
4 14
4 15
6 4
4 9
4 10
8 4
4 18
4 20
4 22
12 4
17 4
21 4
24 4
23 4
19 4
6 5
12 5
17 5
21 5
19 5
6 7
6 13
6 14
6 15
6 16
6 20
6 8
12 6
17 6
21 6
24 6
23 6
19 6
8 7
24 7
23 7
19 7
8 9
8 10
8 11
8 18
8 22
12 8
17 8
21 8
24 8
23 8
19 8
9 10
9 18
12 9
17 9
21 9
24 9
23 9
19 9
10 11
12 10
17 10
24 10
23 10
19 10
12 11
23 11
19 11
12 13
12 14
12 15
12 16
12 18
12 24
12 21
12 23
12 17
12 19
13 14
15 13
17 13
21 13
24 13
23 13
19 13
15 14
17 14
21 14
24 14
23 14
15 16
15 25
17 15
21 15
24 15
23 15
19 15
17 16
21 16
24 16
23 16
17 18
17 20
17 22
17 25
17 24
17 21
17 19
17 23
19 18
19 20
21 19
24 19
23 19
21 20
23 20
21 22
21 24
21 23
23 22
24 23
26 0
26 24
26 7
26 29
26 5
26 12
26 1
26 2
26 3
26 13
26 14
26 30
26 9
26 35
26 42
26 20
26 22
26 21
26 15
26 39
26 23
26 41
26 6
26 27
26 28
26 8
26 31
26 17
26 32
26 33
26 36
26 37
26 38
26 40
26 19
26 4
26 34
27 12
27 31
27 17
27 32
27 34
27 21
27 36
27 24
27 38
27 39
27 23
27 40
27 19
27 41
27 0
27 7
27 29
27 5
27 1
27 2
27 3
27 13
27 14
27 30
27 16
27 9
27 10
27 11
27 35
27 18
27 20
27 22
27 15
27 25
27 6
27 8
27 37
27 28
27 33
27 4
28 0
28 1
28 2
28 3
28 7
28 29
28 13
28 30
28 16
28 9
28 10
28 11
28 35
28 18
28 42
28 22
28 15
28 25
28 6
28 8
28 33
28 37
28 4
28 12
28 31
28 17
28 32
28 34
28 21
28 36
28 24
28 38
28 39
28 23
28 40
28 19
28 41
29 0
29 7
29 5
29 9
29 42
29 30
29 35
29 6
29 8
29 33
29 37
29 4
29 12
29 31
29 17
29 32
29 34
29 21
29 36
29 24
29 38
29 39
29 23
29 40
29 19
29 41
30 0
30 1
30 5
30 13
30 14
30 16
30 9
30 10
30 11
30 18
30 42
30 20
30 25
30 35
30 22
30 15
30 6
30 8
30 33
30 37
30 4
30 12
30 31
30 17
30 32
30 34
30 21
30 36
30 24
30 38
30 39
30 23
30 40
30 19
30 41
31 12
31 6
31 8
31 0
31 24
31 17
31 1
31 2
31 34
31 5
31 16
31 9
31 10
31 11
31 18
31 42
31 20
31 25
31 35
31 38
31 22
31 32
31 33
31 21
31 36
31 37
31 39
31 40
31 19
31 4
31 41
31 15
31 23
32 12
32 17
32 6
32 8
32 0
32 24
32 40
32 1
32 15
32 5
32 9
32 2
32 20
32 10
32 18
32 13
32 11
32 14
32 25
32 3
32 16
32 34
32 39
32 23
32 4
32 41
32 33
32 35
32 36
32 37
32 38
32 19
32 21
32 22
33 0
33 1
33 2
33 3
33 7
33 13
33 14
33 15
33 16
33 6
33 35
33 9
33 10
33 11
33 8
33 37
33 20
33 22
33 25
33 4
33 12
33 17
33 34
33 21
33 36
33 24
33 38
33 39
33 23
33 40
33 19
33 41
34 12
34 17
34 6
34 8
34 36
34 37
34 38
34 40
34 19
34 4
34 0
34 24
34 1
34 2
34 3
34 13
34 14
34 5
34 16
34 9
34 10
34 11
34 18
34 42
34 20
34 25
34 22
34 35
34 21
34 39
34 41
34 15
34 23
35 0
35 1
35 7
35 6
35 9
35 10
35 11
35 18
35 42
35 20
35 22
35 8
35 37
35 4
35 12
35 17
35 21
35 36
35 24
35 38
35 39
35 23
35 40
35 19
35 41
36 12
36 17
36 21
36 6
36 8
36 37
36 39
36 23
36 4
36 41
36 0
36 24
36 38
36 40
36 19
36 7
36 15
36 42
36 9
36 10
36 22
36 18
36 13
36 11
36 14
37 0
37 7
37 15
37 6
37 9
37 10
37 11
37 8
37 18
37 42
37 20
37 22
37 4
37 12
37 17
37 21
37 24
37 38
37 39
37 23
37 40
37 19
37 41
38 12
38 17
38 21
38 24
38 6
38 8
38 0
38 1
38 2
38 3
38 13
38 14
38 5
38 16
38 9
38 10
38 11
38 18
38 42
38 20
38 22
38 39
38 40
38 19
38 4
38 41
38 15
38 23
39 12
39 17
39 21
39 24
39 0
39 7
39 5
39 1
39 2
39 16
39 9
39 10
39 11
39 42
39 20
39 22
39 15
39 23
39 41
39 6
39 8
39 40
39 19
39 4
40 12
40 17
40 21
40 24
40 23
40 6
40 8
40 0
40 7
40 1
40 15
40 5
40 42
40 9
40 2
40 20
40 10
40 22
40 18
40 13
40 14
40 25
40 16
40 4
40 41
40 19
41 12
41 17
41 21
41 24
41 23
41 19
41 0
41 1
41 13
41 14
41 42
41 20
41 15
41 6
41 4
42 27
42 32
42 33
42 0
42 17
42 23
